n=20;
t=24;
profit=[10 9 5 4 7 5 2 4 6 6 8 9 5 5 5 2 10 7 10 1];
length=[1 4 1 5 2 5 4 5 3 3 3 2 4 1 3 2 5 1 2 1];
min_deliver=[19 1 10 21 7 9 2 3 3 2 5 1 3 2 7 17 3 1 6 1];
max_deliver=[21 4 12 23 23 9 23 5 9 9 24 2 23 2 8 20 21 1 18 2];
surface=[3 4 3 1 1 5 4 5 5 4 1 4 5 3 3 2 3 4 3 3];
surface_capacity=24;
